networks/zoo_52_260/standard/zoo_52_260.sol
<?xml version = "1.0" encoding="UTF-8" standalone="yes"?>
<CPLEXSolution version="1.2">
 <header
   problemName="networks/zoo_52_260/zoo_52_260.lp"
   solutionName="incumbent"
   solutionIndex="-1"
   objectiveValue="35"
   solutionTypeValue="3"
   solutionTypeString="primal"
   solutionStatusValue="101"
   solutionStatusString="integer optimal solution"
   solutionMethodString="mip"
   primalFeasible="1"
   dualFeasible="1"
   MIPNodes="0"
   MIPIterations="3311"
   writeLevel="3"/>
 <quality
   epInt="1.0000000000000001e-05"
   epRHS="9.9999999999999995e-07"
   maxIntInfeas="0"
   maxPrimalInfeas="1.1102230246251565e-15"
   maxX="4"
   maxSlack="10"/>
 <variables>
  <variable name="Y(6,1)" index="255" value="1"/>
  <variable name="Y(10,13)" index="471" value="1"/>
  <variable name="Y(14,19)" index="681" value="1"/>
  <variable name="Y(19,20)" index="937" value="1"/>
  <variable name="Y(28,23)" index="1399" value="1"/>
  <variable name="Y(30,23)" index="1501" value="1"/>
  <variable name="Y(40,7)" index="1995" value="1"/>
  <variable name="Y(44,25)" index="2217" value="1"/>
  <variable name="Y(46,9)" index="2303" value="1"/>
  <variable name="Y(56,10)" index="2814" value="1"/>
  <variable name="Y(61,12)" index="3071" value="1"/>
  <variable name="Y(65,4)" index="3267" value="1"/>
  <variable name="Y(66,5)" index="3319" value="1"/>
  <variable name="Y(68,7)" index="3423" value="1"/>
  <variable name="Y(69,8)" index="3475" value="1"/>
  <variable name="Y(70,9)" index="3527" value="1"/>
  <variable name="Y(71,10)" index="3579" value="1"/>
  <variable name="Y(74,14)" index="3736" value="1"/>
  <variable name="Y(75,15)" index="3788" value="1"/>
  <variable name="Y(77,17)" index="3892" value="1"/>
  <variable name="Y(78,18)" index="3944" value="1"/>
  <variable name="Y(110,24)" index="5582" value="1"/>
  <variable name="Y(114,15)" index="5777" value="1"/>
  <variable name="Y(125,25)" index="6348" value="1"/>
  <variable name="Y(132,24)" index="6704" value="1"/>
  <variable name="Y(135,18)" index="6851" value="1"/>
  <variable name="Y(154,26)" index="7828" value="1"/>
  <variable name="Y(179,13)" index="9090" value="1"/>
  <variable name="Y(208,2)" index="10558" value="1"/>
  <variable name="Y(209,3)" index="10610" value="1"/>
  <variable name="Y(217,11)" index="11026" value="1"/>
  <variable name="Y(222,16)" index="11286" value="1"/>
  <variable name="Y(227,21)" index="11546" value="1"/>
  <variable name="Y(239,6)" index="12143" value="1"/>
  <variable name="Y(259,22)" index="13179" value="1"/>
  <variable name="X(1,13,6)" index="13265" value="1"/>
  <variable name="X(2,13,10)" index="13529" value="1"/>
  <variable name="X(2,28,208)" index="13987" value="1"/>
  <variable name="X(3,20,14)" index="14053" value="1"/>
  <variable name="X(3,29,209)" index="14508" value="1"/>
  <variable name="X(4,20,19)" index="14578" value="1"/>
  <variable name="X(4,30,65)" index="14884" value="1"/>
  <variable name="X(5,22,28)" index="15107" value="1"/>
  <variable name="X(5,31,66)" index="15405" value="1"/>
  <variable name="X(6,23,30)" index="15629" value="1"/>
  <variable name="X(6,32,239)" index="16098" value="1"/>
  <variable name="X(7,25,40)" index="16159" value="1"/>
  <variable name="X(7,33,68)" index="16447" value="1"/>
  <variable name="X(8,25,44)" index="16683" value="1"/>
  <variable name="X(8,34,69)" index="16968" value="1"/>
  <variable name="X(9,20,46)" index="17205" value="1"/>
  <variable name="X(9,35,70)" index="17489" value="1"/>
  <variable name="X(10,24,56)" index="17735" value="1"/>
  <variable name="X(10,36,71)" index="18010" value="1"/>
  <variable name="X(11,22,61)" index="18260" value="1"/>
  <variable name="X(11,37,217)" index="18676" value="1"/>
  <variable name="X(12,13,222)" index="18941" value="1"/>
  <variable name="X(12,23,239)" index="19218" value="1"/>
  <variable name="X(12,38,61)" index="19300" value="1"/>
  <variable name="X(13,2,208)" index="19707" value="1"/>
  <variable name="X(13,12,61)" index="19820" value="1"/>
  <variable name="X(13,16,222)" index="20241" value="1"/>
  <variable name="X(13,20,10)" index="20289" value="1"/>
  <variable name="X(13,21,227)" index="20766" value="1"/>
  <variable name="X(13,22,259)" index="21058" value="1"/>
  <variable name="X(13,25,125)" index="21184" value="1"/>
  <variable name="X(13,39,179)" index="21498" value="1"/>
  <variable name="X(14,24,110)" index="21689" value="1"/>
  <variable name="X(14,40,74)" index="21913" value="1"/>
  <variable name="X(15,19,114)" index="22213" value="1"/>
  <variable name="X(15,41,75)" index="22434" value="1"/>
  <variable name="X(16,13,125)" index="22744" value="1"/>
  <variable name="X(16,42,222)" index="23101" value="1"/>
  <variable name="X(17,19,132)" index="23271" value="1"/>
  <variable name="X(17,43,77)" index="23476" value="1"/>
  <variable name="X(18,20,135)" index="23794" value="1"/>
  <variable name="X(18,44,78)" index="23997" value="1"/>
  <variable name="X(19,15,75)" index="24254" value="1"/>
  <variable name="X(19,17,77)" index="24516" value="1"/>
  <variable name="X(19,20,132)" index="24831" value="1"/>
  <variable name="X(19,45,14)" index="24973" value="1"/>
  <variable name="X(20,3,209)" index="25428" value="1"/>
  <variable name="X(20,4,65)" index="25544" value="1"/>
  <variable name="X(20,9,70)" index="25809" value="1"/>
  <variable name="X(20,13,259)" index="26258" value="1"/>
  <variable name="X(20,18,78)" index="26337" value="1"/>
  <variable name="X(20,19,14)" index="26533" value="1"/>
  <variable name="X(20,23,132)" index="26911" value="1"/>
  <variable name="X(20,26,154)" index="27193" value="1"/>
  <variable name="X(20,46,19)" index="27318" value="1"/>
  <variable name="X(21,13,179)" index="27738" value="1"/>
  <variable name="X(21,47,227)" index="28046" value="1"/>
  <variable name="X(22,5,66)" index="28145" value="1"/>
  <variable name="X(22,11,217)" index="28556" value="1"/>
  <variable name="X(22,13,61)" index="28660" value="1"/>
  <variable name="X(22,23,28)" index="28887" value="1"/>
  <variable name="X(22,48,259)" index="29378" value="1"/>
  <variable name="X(23,6,239)" index="29618" value="1"/>
  <variable name="X(23,12,30)" index="29669" value="1"/>
  <variable name="X(23,20,209)" index="30108" value="1"/>
  <variable name="X(23,22,217)" index="30376" value="1"/>
  <variable name="X(23,24,132)" index="30551" value="1"/>
  <variable name="X(23,49,28)" index="30707" value="1"/>
  <variable name="X(24,10,71)" index="31010" value="1"/>
  <variable name="X(24,14,74)" index="31273" value="1"/>
  <variable name="X(24,23,110)" index="31569" value="1"/>
  <variable name="X(24,50,132)" index="31851" value="1"/>
  <variable name="X(25,7,68)" index="32047" value="1"/>
  <variable name="X(25,8,69)" index="32308" value="1"/>
  <variable name="X(25,13,44)" index="32543" value="1"/>
  <variable name="X(25,51,125)" index="32884" value="1"/>
  <variable name="X(26,20,259)" index="33278" value="1"/>
  <variable name="X(26,52,154)" index="33433" value="1"/>
  <variable name="C(10,13)" index="33570" value="1"/>
  <variable name="C(14,20)" index="33584" value="1"/>
  <variable name="C(14,19)" index="33585" value="2"/>
  <variable name="C(19,20)" index="33599" value="1"/>
  <variable name="C(28,22)" index="33630" value="1"/>
  <variable name="C(28,23)" index="33631" value="2"/>
  <variable name="C(30,23)" index="33637" value="1"/>
  <variable name="C(44,25)" index="33688" value="1"/>
  <variable name="C(61,22)" index="33754" value="1"/>
  <variable name="C(61,13)" index="33755" value="2"/>
  <variable name="C(61,12)" index="33756" value="3"/>
  <variable name="C(65,4)" index="33771" value="1"/>
  <variable name="C(66,5)" index="33775" value="1"/>
  <variable name="C(68,7)" index="33782" value="1"/>
  <variable name="C(69,8)" index="33786" value="1"/>
  <variable name="C(70,9)" index="33790" value="1"/>
  <variable name="C(71,10)" index="33794" value="1"/>
  <variable name="C(74,14)" index="33804" value="1"/>
  <variable name="C(75,15)" index="33809" value="1"/>
  <variable name="C(77,17)" index="33817" value="1"/>
  <variable name="C(78,18)" index="33821" value="1"/>
  <variable name="C(110,14)" index="33925" value="3"/>
  <variable name="C(110,24)" index="33926" value="4"/>
  <variable name="C(125,13)" index="33982" value="1"/>
  <variable name="C(125,25)" index="33983" value="2"/>
  <variable name="C(132,19)" index="34008" value="0.99999999999999889"/>
  <variable name="C(132,20)" index="34009" value="1.9999999999999996"/>
  <variable name="C(132,23)" index="34010" value="2.9999999999999996"/>
  <variable name="C(132,24)" index="34011" value="4"/>
  <variable name="C(154,26)" index="34092" value="1"/>
  <variable name="C(179,13)" index="34165" value="0.99999999999999978"/>
  <variable name="C(208,2)" index="34264" value="1"/>
  <variable name="C(209,20)" index="34266" value="1"/>
  <variable name="C(209,3)" index="34267" value="2"/>
  <variable name="C(217,22)" index="34293" value="1"/>
  <variable name="C(217,11)" index="34294" value="2"/>
  <variable name="C(222,13)" index="34309" value="1"/>
  <variable name="C(222,16)" index="34310" value="2"/>
  <variable name="C(227,21)" index="34326" value="1"/>
  <variable name="C(239,23)" index="34365" value="1"/>
  <variable name="C(239,6)" index="34366" value="2"/>
  <variable name="C(259,20)" index="34437" value="1"/>
  <variable name="C(259,13)" index="34438" value="2"/>
  <variable name="C(259,22)" index="34439" value="3"/>
 </variables>
</CPLEXSolution>
